20 47 103
1 2 1
1 8 5
1 13 3
1 18 5
2 5 5
2 9 4
2 13 1
2 16 5
2 20 1
3 9 2
3 13 5
4 6 2
4 14 2
4 16 2
4 20 1
5 8 5
5 10 5
5 11 1
5 14 5
5 15 2
5 20 3
6 7 2
6 9 3
6 11 1
6 17 2
6 18 3
7 9 3
7 17 1
8 9 5
8 12 1
8 14 2
9 16 1
9 18 3
10 15 1
11 13 3
11 17 2
11 18 4
11 19 1
12 15 2
12 16 5
12 19 1
12 20 3
14 19 2
16 19 3
17 18 1
18 19 5
18 20 2
